p cnf 11 27
11 10 9 0
-11 10 -9 0
-11 10 3 0
-11 -9 8 0
11 9 2 0
11 8 -2 0
11 8 1 0
-11 -7 6 0
-11 7 6 0
11 -7 3 0
11 5 1 0
11 -3 1 0
-10 -8 -4 0
-10 -8 -3 0
10 6 5 0
-10 6 2 0
10 -4 1 0
-9 -6 -5 0
-9 -6 -3 0
9 -6 -3 0
-9 -4 3 0
-8 -6 -2 0
8 -3 2 0
6 -5 3 0
6 -5 -2 0
6 -3 -1 0
-6 2 1 0
